21241
0 0 1 1 1 0 0 0 1 0 1 0 1 0 0 0 1 0 1 1 0 0 0 0 1 1 0 1 1 0 
18 19 2 27 2 12 16 27 18 28 4 28 10 3 28 18 3 10 27 27 18 16 2 24 10 18 27 19 4 2 19 19 4 16 27 12 8 8 24 16 18 8 12 4 8 19 3 2 19 19 24 16 24 16 8 12 25 8 18 25 4 24 18 8 3 25 2 19 28 25 18 12 19 8 10 10 8 10 8 16 10 2 8 25 4 10 19 2 27 25 28 19 25 25 2 3 28 12 2 28 28 16 25 18 4 24 4 24 27 3 19 4 27 12 12 8 28 25 28 8 8 25 28 19 4 16 2 12 19 28 28 24 25 10 3 8 3 3 28 10 12 27 12 25 25 2 24 16 27 25 24 28 10 28 8 28 2 16 3 3 3 27 10 24 10 27 2 4 3 2 3 8 19 10 4 2 24 10 4 10 2 16 2 19 12 8 28 10 27 24 2 2 19 4 25 12 25 2 10 19 
